results/x-filo0/X-n120-k6.vrp_seed-15.vrp.sol
Route #1: 98 13 41 85 89 51 63 104 105 101 47 5 26 117 103 17 18 44 15 9 99
Route #2: 20 54 62 87 72 102 111 40 6 92 35 90 114 8 3 45 112 71 96 107 116
Route #3: 88 80 12 49 2 43 76 113 64 109 42 39 70 55 93 16 84 94 119 61 10
Route #4: 50 52 38 29 32 91 21 79 118 30 67 25 73 31
Route #5: 33 36 115 48 86 65 74 110 106 7 97 46 66 108 75 19 28 83 58 14 23
Route #6: 34 27 11 56 1 24 37 57 77 100 59 22 4 95 60 68 69 81 53 82 78
Cost 13382.000000