results/x-long/X-n120-k6.vrp_seed-15.out
13332	1118
